Route #1: 1 29 16 8 21 57 49 13 54 15 6 14 1
Route #2: 1 52 11 9 44 30 62 7 33 35 1
Route #3: 1 53 37 17 38 23 45 3 39 1
Route #4: 1 32 61 26 12 50 36 5 22 42 24 28 46 1
Route #5: 1 20 19 31 2 10 55 43 56 1
Route #6: 1 47 48 25 40 4 1
Route #7: 1 51 59 18 34 27 60 1
Route #8: 1 41 58 1
cost 1526.3021443133312
